************************************************************************
file with basedata            : md335_.bas
initial value random generator: 2141629646
************************************************************************
projects                      :  1
jobs (incl. supersource/sink ):  22
horizon                       :  170
RESOURCES
  - renewable                 :  2   R
  - nonrenewable              :  2   N
  - doubly constrained        :  0   D
************************************************************************
PROJECT INFORMATION:
pronr.  #jobs rel.date duedate tardcost  MPM-Time
    1     20      0       21       13       21
************************************************************************
PRECEDENCE RELATIONS:
jobnr.    #modes  #successors   successors
   1        1          3           2   3   4
   2        3          1          12
   3        3          3           5   6  10
   4        3          3           9  17  21
   5        3          3           9  12  13
   6        3          3           7   8  11
   7        3          2          18  21
   8        3          3          15  17  20
   9        3          1          11
  10        3          3          13  16  20
  11        3          1          19
  12        3          3          14  16  20
  13        3          1          15
  14        3          2          15  18
  15        3          2          19  21
  16        3          1          17
  17        3          1          18
  18        3          1          19
  19        3          1          22
  20        3          1          22
  21        3          1          22
  22        1          0        
************************************************************************
REQUESTS/DURATIONS:
jobnr. mode duration  R 1  R 2  N 1  N 2
------------------------------------------------------------------------
  1      1     0       0    0    0    0
  2      1     2      10    8   10    0
         2     3      10    4    0    2
         3     9      10    1    5    0
  3      1     1       4    4    2    0
         2     1       4    3    0    2
         3     9       3    1    2    0
  4      1     6      10    8    0    3
         2     9       8    6    4    0
         3     9       9    5    5    0
  5      1     5      10    5    0    5
         2     7       9    5    0    5
         3     9       9    5    6    0
  6      1     2       2   10    0    8
         2     5       2    9    0    6
         3     9       2    9    0    3
  7      1     4      10    9    0    4
         2     6       8    9    0    3
         3     8       6    8   10    0
  8      1     7       8    6    0    6
         2    10       6    4    9    0
         3    10       7    4    0    5
  9      1     2       8    8    0   10
         2     3       7    5   10    0
         3     6       5    3    0    8
 10      1     1       8    9    0   10
         2     2       7    6    0    8
         3     7       1    3    0    4
 11      1     2       8   10    0    9
         2     7       6    9    0    9
         3     8       4    8    0    8
 12      1     2       4    8    9    0
         2     6       3    8    9    0
         3     6       4    8    8    0
 13      1     1      10   10    0    6
         2     3       9   10    9    0
         3     8       9   10    8    0
 14      1     3       6    8    9    0
         2     7       6    7    0    7
         3     8       5    6    0    6
 15      1     4       8    7    9    0
         2     5       7    7    9    0
         3     9       6    4    8    0
 16      1     1       3    8    7    0
         2     9       3    8    0    4
         3    10       2    7    0    3
 17      1     2       9    5    8    0
         2     6       7    4    8    0
         3     9       2    3    7    0
 18      1     5      10   10    0    9
         2     8       8    8    5    0
         3     9       7    7    4    0
 19      1     4       8    9    2    0
         2     5       7    8    0    9
         3     7       6    7    0    9
 20      1     7       7    7    0   10
         2     9       3    6    3    0
         3    10       2    5    3    0
 21      1     3       5    9    7    0
         2     5       5    5    7    0
         3    10       4    5    0   10
 22      1     0       0    0    0    0
************************************************************************
RESOURCEAVAILABILITIES:
  R 1  R 2  N 1  N 2
   33   33   72   65
************************************************************************
MAXIMAL LAGS:
from  to  type  delay
    1   12   ES      0
    1    2   ES      0
    2   12   ES      0
    1    3   ES      0
    3   12   ES      0
    1    4   ES      0
    4   12   ES      0
    1    5   ES      0
    5   12   ES      0
    1    6   ES      0
    6   12   ES      0
    1    7   ES      0
    7   12   ES      0
    1    8   ES      0
    8   12   ES      0
    1    9   ES      0
    9   12   ES      0
    1   10   ES      0
   10   12   ES      0
    1   11   ES      0
   11   12   ES      0
    1   12   ES      0
    3    5   SS    -12
    3    5   SE      7
    3    5   ES      4
    3    5   EE      0
    3    6   SS     -8
    3    6   SE     -3
    3    6   ES    -11
    3    6   EE     -1
    3   10   SS      5
    3   10   SE    -11
    3   10   ES    -12
    3   10   EE     10
    4    9   SS      5
    4    9   SE     -1
    4    9   ES     -9
    4    9   EE     -3
    4   17   SS    -12
    4   17   SE     -5
    4   17   ES      1
    4   17   EE     10
    4   21   SS      6
    4   21   SE      0
    4   21   ES      8
    4   21   EE     -2
    5    9   SS     10
    5    9   SE      0
    9    5   SE      0
    5    9   ES      0
    5    9   EE      0
    5   13   SS      1
    5   13   SE      5
    5   13   ES     -6
    5   13   EE      9
    6    7   SS     -7
    6    7   SE      3
    6    7   ES     -8
    6    7   EE     -6
    6    8   SS      5
    6    8   SE      0
    6    8   ES     -1
    6    8   EE      1
    6   11   SS     -8
    6   11   SE     -3
    6   11   ES      9
    6   11   EE     -8
    7   18   SS     -8
    7   18   SE    -12
    7   18   ES    -10
    7   18   EE      8
    7   21   SS    -12
    7   21   SE     -8
    7   21   ES     11
    7   21   EE      3
    8   15   SS      9
    8   15   SE      1
    8   15   ES     -8
    8   15   EE    -10
    8   17   SS     -8
    8   17   SE      8
    8   17   ES      1
    8   17   EE      2
    8   20   SS     10
    8   20   SE      7
    8   20   ES      1
    8   20   EE      7
    9   11   SS     -7
    9   11   SE      2
    9   11   ES      4
    9   11   EE      1
   10   13   SS      5
   10   13   SE      2
   10   13   ES      0
   10   13   EE     -1
   10   16   SS     -5
   10   16   SE     -7
   10   16   ES      1
   10   16   EE      7
   10   20   SS    -12
   10   20   SE      6
   10   20   ES      3
   10   20   EE     11
   11   19   SS     -5
   11   19   SE     10
   11   19   ES      4
   11   19   EE     -4
   12   14   SS      1
   12   14   SE      5
   12   14   ES      6
   12   14   EE     -1
   12   16   SS    -11
   12   16   SE    -11
   12   16   ES      6
   12   16   EE      3
   12   20   SS     10
   12   20   SE     -1
   12   20   ES     -9
   12   20   EE      6
   13   15   SS      3
   13   15   SE     10
   13   15   ES    -10
   13   15   EE     -8
   14   15   SS     11
   14   15   SE     11
   14   15   ES      4
   14   15   EE     12
   14   18   SS     12
   14   18   SE     -4
   14   18   ES      2
   14   18   EE      4
   15   19   SS    -10
   15   19   SE      4
   15   19   ES      7
   15   19   EE    -10
   15   21   SS     -5
   15   21   SE      3
   15   21   ES      8
   15   21   EE     11
   16   17   SS      9
   16   17   SE      9
   16   17   ES    -10
   16   17   EE      9
   17   18   SS      8
   17   18   SE      5
   17   18   ES      6
   17   18   EE     -3
   18   19   SS      7
   18   19   SE    -11
   18   19   ES     -2
   18   19   EE      5
   19   22   SS     12
   19   22   SE    -12
   19   22   ES      3
   19   22   EE      2
   20   22   SS      4
   20   22   SE      3
   20   22   ES      6
   20   22   EE     11
   21   22   SS     -2
   21   22   SE      1
   21   22   ES     -1
   21   22   EE     -3
************************************************************************
